logs/2026_03_24_00_34_20_set_set_set_s008_g006_max.log
[2026-03-24T00:34:20.837Z] Pipeline "set_set_set_s008_g006" → 2026_03_24_00_34_20_set_set_set_s008_g006_max.sol
Set parameter WLSAccessID
Set parameter WLSSecret
Set parameter LicenseID to value 2792458
Set parameter LogFile to value "gurobi.log"
Using license file /root/gurobi.lic
Academic license 2792458 - for non-commercial use only - registered to an___@studenti.unipg.it

Gurobi Optimizer version 13.0.1 build v13.0.1rc0 (linux64 - "Ubuntu 24.04.4 LTS")
Copyright (c) 2026, Gurobi Optimization, LLC

Warning: Duplicate section found (read 'binary') - Is a variable name equal to an LP file format keyword?
Warning: Duplicate section found (read 'binary') - Is a variable name equal to an LP file format keyword?
Warning: Duplicate section found (read 'binary') - Is a variable name equal to an LP file format keyword?
Warning: Duplicate section found (read 'binary') - Is a variable name equal to an LP file format keyword?
Warning: Duplicate section found (read 'binary') - Is a variable name equal to an LP file format keyword?
Warning: Duplicate section found (read 'binary') - Is a variable name equal to an LP file format keyword?
Warning: Duplicate section found (read 'binary') - Is a variable name equal to an LP file format keyword?
Warning: Duplicate section found (read 'binary') - Is a variable name equal to an LP file format keyword?
Warning: Duplicate section found (read 'binary') - Is a variable name equal to an LP file format keyword?
Warning: Duplicate section found (read 'binary') - Is a variable name equal to an LP file format keyword?
Warning: Further warnings of this type will be omitted.
Read LP format model from file /root/bgw/data/uploads/2026_03_24_00_34_20_set_set_set_s008_g006_max.lp
Reading time = 0.00 seconds
: 974 rows, 161 columns, 2720 nonzeros

Using Gurobi shared library /opt/gurobi1301/linux64/lib/libgurobi.so.13.0.1

CPU model: AMD EPYC-Genoa Processor, instruction set [SSE2|AVX|AVX2|AVX512]
Thread count: 16 physical cores, 16 logical processors, using up to 16 threads

Academic license 2792458 - for non-commercial use only - registered to an___@studenti.unipg.it
Optimize a model with 974 rows, 161 columns and 2720 nonzeros (Max)
Model fingerprint: 0xc3559d45
Model has 21 linear objective coefficients
Variable types: 34 continuous, 127 integer (127 binary)
Coefficient statistics:
  Matrix range     [1e+00, 1e+01]
  Objective range  [1e+00, 1e+00]
  Bounds range     [1e+00, 1e+00]
  RHS range        [1e+00, 2e+01]

Found heuristic solution: objective 21.0000000
Presolve removed 358 rows and 57 columns
Presolve time: 0.01s
Presolved: 616 rows, 104 columns, 1928 nonzeros
Variable types: 0 continuous, 104 integer (96 binary)
Found heuristic solution: objective 33.0000000

Root relaxation: objective 9.900000e+01, 93 iterations, 0.00 seconds (0.00 work units)

    Nodes    |    Current Node    |     Objective Bounds      |     Work
 Expl Unexpl |  Obj  Depth IntInf | Incumbent    BestBd   Gap | It/Node Time

     0     0   99.00000    0   37   33.00000   99.00000   200%     -    0s
H    0     0                      44.0000000   99.00000   125%     -    0s
H    0     0                      48.0000000   99.00000   106%     -    0s
     0     0   99.00000    0   38   48.00000   99.00000   106%     -    0s
     0     0   99.00000    0   40   48.00000   99.00000   106%     -    0s
     0     0   99.00000    0   33   48.00000   99.00000   106%     -    0s
     0     0   99.00000    0   35   48.00000   99.00000   106%     -    0s
     0     0   99.00000    0   35   48.00000   99.00000   106%     -    0s
     0     0   99.00000    0   35   48.00000   99.00000   106%     -    0s
     0     0   99.00000    0   34   48.00000   99.00000   106%     -    0s
H    0     0                      50.0000000   99.00000  98.0%     -    0s
     0     0   99.00000    0   33   50.00000   99.00000  98.0%     -    0s
     0     0   99.00000    0   25   50.00000   99.00000  98.0%     -    0s
     0     0   99.00000    0   25   50.00000   99.00000  98.0%     -    0s
H    0     0                      52.0000000   98.00000  88.5%     -    0s
     0     0   98.00000    0   34   52.00000   98.00000  88.5%     -    0s
     0     0   98.00000    0   34   52.00000   98.00000  88.5%     -    0s
     0     0   98.00000    0   34   52.00000   98.00000  88.5%     -    0s
     0     0   98.00000    0   28   52.00000   98.00000  88.5%     -    0s
     0     0   97.54545    0   34   52.00000   97.54545  87.6%     -    0s
     0     0   96.00000    0   34   52.00000   96.00000  84.6%     -    0s
     0     0   96.00000    0   33   52.00000   96.00000  84.6%     -    0s
     0     0   96.00000    0   33   52.00000   96.00000  84.6%     -    0s
     0     0   96.00000    0   33   52.00000   96.00000  84.6%     -    0s
     0     2   96.00000    0   33   52.00000   96.00000  84.6%     -    0s

Cutting planes:
  Cover: 2
  Inf proof: 9

Explored 24460 nodes (574985 simplex iterations) in 1.74 seconds (2.22 work units)
Thread count was 16 (of 16 available processors)

Solution count 7: 52 50 48 ... 21

Optimal solution found (tolerance 1.00e-04)
Best objective 5.200000000000e+01, best bound 5.200000000000e+01, gap 0.0000%

Wrote result file '/root/bgw/data/results/2026_03_24_00_34_20_set_set_set_s008_g006_max.sol'

